(set-info :smt-lib-version 2.6)
(set-logic QF_SLIA)
(set-info :source |
Generated by: Dmitry Blotsky1, Federico Mora, Murphy Berzish, Yunhui Zheng, Ifaz Kabir, Vijay Ganesh, Zhengyang Lu
Generated on: 2018-01-24
Generator: StringFuzz
Application: Evaluate string solvers
Target solver: Z3str3, CVC4, Z3str2, Norn
Publications: Blotsky, D., Mora, F., Berzish, M., Zheng, Y., Kabir, I., & Ganesh, V. (2018). Stringfuzz: A fuzzer for string solvers. In CAV 2018.
Description: new instance generated by StringFuzz, a modular string and regex fuzzer
|)
(set-info :license "https://creativecommons.org/licenses/by/4.0/")
(set-info :category "random")
(set-info :status unknown)

(declare-fun var0 () String)
(assert (str.in_re var0 (re.++ (re.* (re.+ (str.to_re "00"))) (re.++ (re.* (re.+ (str.to_re "11"))) (re.++ (re.* (re.* (str.to_re "222"))) (re.++ (re.* (re.* (str.to_re "333"))) (re.++ (re.* (re.union (str.to_re "444") (str.to_re "555"))) (re.++ (re.+ (re.+ (str.to_re "66"))) (re.++ (re.+ (re.* (str.to_re "77"))) (re.++ (re.+ (re.union (str.to_re "88") (str.to_re "9"))) (re.++ (re.union (re.* (str.to_re "aaa")) (re.* (str.to_re "bb"))) (re.++ (re.* (re.+ (str.to_re "ccc"))) (re.++ (re.+ (re.+ (str.to_re "ddd"))) (re.++ (re.* (re.* (str.to_re "eee"))) (re.++ (re.* (re.* (str.to_re "fff"))) (re.++ (re.* (re.union (str.to_re "gg") (str.to_re "hh"))) (re.++ (re.union (re.+ (str.to_re "iii")) (re.+ (str.to_re "jjj"))) (re.++ (re.+ (re.* (str.to_re "kkk"))) (re.++ (re.+ (re.+ (str.to_re "lll"))) (re.++ (re.union (re.+ (str.to_re "mmm")) (re.* (str.to_re "nn"))) (re.++ (re.* (re.+ (str.to_re "o"))) (re.++ (re.+ (re.* (str.to_re "pp"))) (re.++ (re.* (re.union (str.to_re "q") (str.to_re "rrr"))) (re.++ (re.union (re.+ (str.to_re "ss")) (re.+ (str.to_re "t"))) (re.++ (re.union (re.+ (str.to_re "uuu")) (re.* (str.to_re "vv"))) (re.++ (re.+ (re.* (str.to_re "www"))) (re.++ (re.* (re.* (str.to_re "x"))) (re.++ (re.union (re.union (str.to_re "yy") (str.to_re "zzz")) (re.union (str.to_re "AAA") (str.to_re "BBB"))) (re.++ (re.* (re.* (str.to_re "CC"))) (re.++ (re.* (re.union (str.to_re "D") (str.to_re "E"))) (re.++ (re.+ (re.* (str.to_re "F"))) (re.++ (re.union (re.+ (str.to_re "GGG")) (re.+ (str.to_re "H"))) (re.++ (re.* (re.* (str.to_re "I"))) (re.++ (re.* (re.* (str.to_re "JJJ"))) (re.++ (re.* (re.union (str.to_re "KK") (str.to_re "L"))) (re.++ (re.* (re.union (str.to_re "MMM") (str.to_re "NNN"))) (re.++ (re.* (re.* (str.to_re "OOO"))) (re.++ (re.+ (re.+ (str.to_re "PP"))) (re.++ (re.union (re.union (str.to_re "QQQ") (str.to_re "RR")) (re.* (str.to_re "SS"))) (re.++ (re.* (re.union (str.to_re "T") (str.to_re "UU"))) (re.++ (re.+ (re.+ (str.to_re "VVV"))) (re.++ (re.+ (re.+ (str.to_re "W"))) (re.++ (re.union (re.* (str.to_re "XX")) (re.+ (str.to_re "Y"))) (re.++ (re.* (re.union (str.to_re "ZZZ") (str.to_re "!!!"))) (re.++ (re.* (re.+ (str.to_re """"""""))) (re.++ (re.+ (re.union (str.to_re "###") (str.to_re "$$"))) (re.++ (re.+ (re.+ (str.to_re "%%"))) (re.++ (re.+ (re.union (str.to_re "&&") (str.to_re "'''"))) (re.++ (re.+ (re.* (str.to_re "("))) (re.++ (re.+ (re.* (str.to_re "))"))) (re.++ (re.union (re.* (str.to_re "*")) (re.* (str.to_re "++"))) (re.++ (re.union (re.union (str.to_re ",,") (str.to_re "---")) (re.union (str.to_re "..") (str.to_re "///"))) (re.++ (re.* (re.* (str.to_re ":"))) (re.++ (re.union (re.+ (str.to_re ";;")) (re.union (str.to_re "<<") (str.to_re "=="))) (re.++ (re.+ (re.+ (str.to_re ">>"))) (re.++ (re.+ (re.union (str.to_re "???") (str.to_re "@@"))) (re.++ (re.* (re.union (str.to_re "[[") (str.to_re "\\\\"))) (re.++ (re.+ (re.union (str.to_re "]]") (str.to_re "^"))) (re.++ (re.* (re.union (str.to_re "___") (str.to_re "`"))) (re.++ (re.* (re.* (str.to_re "{{{"))) (re.* (re.union (str.to_re "|") (str.to_re "}}}")))))))))))))))))))))))))))))))))))))))))))))))))))))))))))))))
(check-sat)
(exit)
